Instance: E121-07c.dat
Class:  2
120 --- number of customers (no depot)
23 --- number of vehicles
183 --- number of items
Capacity - height - width of vehicles
   200     40     20
Node - x - y - demand  Readytime Duetime
  0.00   10.00  45.00   0.00 0       690.00
  1.00   25.00   1.00  25.00  64.00   99.00
  2.00   25.00   3.00   7.00  32.00   99.00
  3.00   31.00   5.00  13.00 170.00  196.00
  4.00   32.00   5.00   6.00 398.00  415.00
  5.00   31.00   7.00  14.00 233.00  263.00
  6.00   32.00   9.00   5.00  44.00   99.00
  7.00   34.00   9.00  11.00 506.00  536.00
  8.00   46.00   9.00  19.00 527.00  549.00
  9.00   35.00   7.00   5.00 499.00  516.00
 10.00   34.00   6.00  15.00  13.00   99.00
 11.00   35.00   5.00  15.00 551.00  570.00
 12.00   47.00   6.00  17.00  99.00  126.00
 13.00   40.00   5.00  13.00 561.00  588.00
 14.00   39.00   3.00  12.00 554.00  582.00
 15.00   36.00   3.00  18.00  84.00   99.00
 16.00   73.00   6.00  13.00 516.00  543.00
 17.00   73.00   8.00  18.00 496.00  512.00
 18.00   24.00  36.00  12.00 195.00  211.00
 19.00   76.00   6.00  17.00 177.00  204.00
 20.00   76.00  10.00   4.00 497.00  522.00
 21.00   76.00  13.00   7.00 155.00  179.00
 22.00   78.00   3.00  12.00  94.00  124.00
 23.00   78.00   9.00  13.00  82.00  100.00
 24.00   79.00   3.00   8.00 301.00  325.00
 25.00   79.00   5.00  16.00 454.00  479.00
 26.00   79.00  11.00  15.00 247.00  265.00
 27.00   82.00   3.00   6.00  21.00   99.00
 28.00   82.00   7.00   5.00 521.00  536.00
 29.00   90.00  15.00   9.00 394.00  420.00
 30.00   84.00   3.00  11.00 541.00  570.00
 31.00   84.00   5.00  10.00 176.00  206.00
 32.00   84.00   9.00   3.00 447.00  468.00
 33.00   85.00   1.00   7.00 273.00  293.00
 34.00   87.00   5.00   2.00 142.00  158.00
 35.00   85.00   8.00   4.00  14.00   99.00
 36.00   87.00   7.00   4.00  78.00   99.00
 37.00   86.00  41.00  18.00 236.00  264.00
 38.00   86.00  44.00  14.00  41.00   99.00
 39.00   86.00  46.00  12.00 246.00  263.00
 40.00   85.00  55.00  17.00 474.00  497.00
 41.00   89.00  43.00  20.00 503.00  529.00
 42.00   89.00  46.00  14.00 478.00  508.00
 43.00   89.00  52.00  16.00 351.00  372.00
 44.00   92.00  42.00  10.00 505.00  523.00
 45.00   92.00  52.00   9.00 225.00  254.00
 46.00   94.00  42.00  11.00  79.00  104.00
 47.00   94.00  44.00   7.00 389.00  407.00
 48.00   94.00  48.00  13.00 378.00  395.00
 49.00   96.00  42.00   5.00 298.00  323.00
 50.00   99.00  46.00   4.00 159.00  178.00
 51.00   99.00  50.00  21.00 431.00  460.00
 52.00   83.00  80.00  13.00 402.00  418.00
 53.00   83.00  83.00  11.00 357.00  387.00
 54.00   85.00  81.00  12.00 355.00  375.00
 55.00   85.00  85.00  14.00  24.00   99.00
 56.00   85.00  89.00  10.00 413.00  428.00
 57.00   87.00  80.00   8.00 264.00  282.00
 58.00   87.00  86.00  16.00 557.00  579.00
 59.00   90.00  77.00  19.00 132.00  152.00
 60.00   90.00  88.00   5.00 518.00  545.00
 61.00   93.00  82.00  17.00 209.00  225.00
 62.00   93.00  84.00   7.00 179.00  202.00
 63.00   93.00  89.00  16.00 170.00  195.00
 64.00   94.00  86.00  14.00 394.00  409.00
 65.00   95.00  80.00  17.00 327.00  346.00
 66.00   99.00  89.00  13.00 429.00  457.00
 67.00   37.00  83.00  17.00 393.00  409.00
 68.00   50.00  80.00  13.00 260.00  284.00
 69.00   35.00  85.00  14.00  91.00  112.00
 70.00   35.00  87.00  16.00  54.00   99.00
 71.00   44.00  86.00   7.00 231.00  250.00
 72.00   46.00  89.00  13.00  67.00   99.00
 73.00   46.00  83.00   9.00 423.00  451.00
 74.00   46.00  87.00  11.00 173.00  196.00
 75.00   46.00  89.00  35.00  25.00   99.00
 76.00   48.00  83.00   5.00 249.00  264.00
 77.00   50.00  85.00  28.00 134.00  164.00
 78.00   50.00  88.00   7.00 356.00  381.00
 79.00   54.00  86.00   3.00 282.00  299.00
 80.00   54.00  90.00  10.00  54.00   99.00
 81.00   10.00  35.00   7.00  50.00   99.00
 82.00   10.00  40.00  12.00 498.00  525.00
 83.00   18.00  30.00  11.00 301.00  321.00
 84.00   17.00  35.00  10.00 483.00  502.00
 85.00   16.00  38.00   8.00 346.00  374.00
 86.00   14.00  40.00  11.00  21.00   99.00
 87.00   15.00  42.00  21.00 101.00  128.00
 88.00   11.00  42.00   4.00  15.00   99.00
 89.00   18.00  40.00  15.00  23.00   99.00
 90.00   21.00  39.00  16.00  84.00  102.00
 91.00   20.00  40.00   4.00 530.00  552.00
 92.00   18.00  41.00  16.00 209.00  229.00
 93.00   20.00  44.00   7.00 128.00  155.00
 94.00   22.00  44.00  10.00 320.00  346.00
 95.00   16.00  45.00   9.00 415.00  439.00
 96.00   20.00  45.00  11.00 108.00  136.00
 97.00   25.00  45.00  17.00 317.00  335.00
 98.00   30.00  55.00  12.00 354.00  377.00
 99.00   20.00  50.00  11.00 451.00  471.00
100.00   22.00  51.00   7.00 492.00  518.00
101.00   18.00  49.00   9.00 104.00  124.00
102.00   16.00  48.00  11.00 195.00  210.00
103.00   20.00  55.00  12.00 137.00  157.00
104.00   18.00  53.00   7.00 314.00  341.00
105.00   14.00  50.00   8.00 246.00  267.00
106.00   15.00  51.00   6.00 357.00  382.00
107.00   16.00  54.00   5.00 294.00  322.00
108.00   28.00  33.00  12.00 161.00  188.00
109.00   33.00  38.00  13.00 505.00  533.00
110.00   30.00  50.00   7.00 528.00  544.00
111.00   13.00  40.00   7.00 423.00  451.00
112.00   15.00  36.00   8.00 223.00  238.00
113.00   18.00  31.00  11.00 195.00  220.00
114.00   25.00  37.00  13.00 449.00  471.00
115.00   30.00  46.00  11.00 385.00  408.00
116.00   25.00  52.00  10.00  88.00  106.00
117.00   16.00  33.00   7.00 229.00  246.00
118.00   25.00  35.00   4.00 113.00  128.00
119.00    5.00  40.00  20.00 340.00  367.00
120.00    5.00  50.00  13.00 515.00  534.00
Node - number of items - h - w for each item
    0   0
    1   1    1    1
    2   1    1    1
    3   1    1    1
    4   1    1    1
    5   1    1    1
    6   1    1    1
    7   1    1    1
    8   1    1    1
    9   1    1    1
   10   1    1    1
   11   1    1    1
   12   1    1    1
   13   1    1    1
   14   1    1    1
   15   1    1    1
   16   1    1    1
   17   1    1    1
   18   1    1    1
   19   1    1    1
   20   1    1    1
   21   1    1    1
   22   1    1    1
   23   1    1    1
   24   1    1    1
   25   1    1    1
   26   1    1    1
   27   1    1    1
   28   1    1    1
   29   1    1    1
   30   1    1    1
   31   1    1    1
   32   1    1    1
   33   1    1    1
   34   1    1    1
   35   1    1    1
   36   1    1    1
   37   1    1    1
   38   1    1    1
   39   1    1    1
   40   1    1    1
   41   1    1    1
   42   1    1    1
   43   1    1    1
   44   1    1    1
   45   1    1    1
   46   1    1    1
   47   1    1    1
   48   1    1    1
   49   1    1    1
   50   1    1    1
   51   1    1    1
   52   1    1    1
   53   1    1    1
   54   1    1    1
   55   1    1    1
   56   1    1    1
   57   1    1    1
   58   1    1    1
   59   1    1    1
   60   1    1    1
   61   1    1    1
   62   1    1    1
   63   1    1    1
   64   1    1    1
   65   1    1    1
   66   1    1    1
   67   1    1    1
   68   1    1    1
   69   1    1    1
   70   1    1    1
   71   1    1    1
   72   1    1    1
   73   1    1    1
   74   1    1    1
   75   1    1    1
   76   1    1    1
   77   1    1    1
   78   1    1    1
   79   1    1    1
   80   1    1    1
   81   1    1    1
   82   1    1    1
   83   1    1    1
   84   1    1    1
   85   1    1    1
   86   1    1    1
   87   1    1    1
   88   1    1    1
   89   1    1    1
   90   1    1    1
   91   1    1    1
   92   1    1    1
   93   1    1    1
   94   1    1    1
   95   1    1    1
   96   1    1    1
   97   1    1    1
   98   1    1    1
   99   1    1    1
  100   1    1    1
  101   1    1    1
  102   1    1    1
  103   1    1    1
  104   1    1    1
  105   1    1    1
  106   1    1    1
  107   1    1    1
  108   1    1    1
  109   1    1    1
  110   1    1    1
  111   1    1    1
  112   1    1    1
  113   1    1    1
  114   1    1    1
  115   1    1    1
  116   1    1    1
  117   1    1    1
  118   1    1    1
  119   1    1    1
  120   1    1    1
